results/res_prop_muc/res_Cimatti_mathsat_cores/QF_RDL/fischer6-mutex-10.smt.smt2.res
unsat
( c1000
  c1003
  c1006
  c1007
  c1008
  c1009
  c1010
  c1011
  c1012
  c1013
  c1014
  c1015
  c1016
  c1017
  c1018
  c1019
  c1020
  c1021
  c1029
  c1030
  c1032
  c1034
  c104
  c1042
  c1045
  c1049
  c1050
  c1051
  c1055
  c1058
  c1060
  c1061
  c1063
  c1067
  c1072
  c1073
  c108
  c1080
  c1082
  c1085
  c1088
  c1089
  c1090
  c1091
  c1092
  c1093
  c1094
  c1095
  c1096
  c1097
  c1098
  c1099
  c1100
  c1101
  c1102
  c1103
  c111
  c1111
  c1112
  c1115
  c1124
  c1127
  c113
  c1131
  c1132
  c1133
  c1137
  c114
  c1140
  c1142
  c1143
  c1146
  c1149
  c1154
  c1155
  c1162
  c1164
  c1170
  c1171
  c1172
  c1173
  c1174
  c1175
  c1176
  c1177
  c1178
  c1179
  c1180
  c1181
  c1182
  c1183
  c1184
  c1185
  c1193
  c1194
  c1196
  c1198
  c1206
  c1209
  c1213
  c1214
  c1215
  c1219
  c122
  c1222
  c1224
  c1225
  c1227
  c1231
  c1236
  c1237
  c1244
  c1246
  c1249
  c1252
  c1253
  c1254
  c1255
  c1256
  c1257
  c1258
  c1259
  c126
  c1260
  c1261
  c1262
  c1263
  c1264
  c1265
  c1266
  c1267
  c1275
  c1276
  c1286
  c129
  c1290
  c1294
  c1298
  c1302
  c1306
  c1310
  c1314
  c1318
  c1322
  c1326
  c133
  c1330
  c1333
  c1334
  c1341
  c1342
  c1345
  c1347
  c135
  c1353
  c1354
  c1359
  c1360
  c1361
  c1363
  c1365
  c1367
  c1368
  c1369
  c1373
  c1375
  c1377
  c1379
  c1381
  c1382
  c1389
  c1391
  c1393
  c1395
  c1397
  c1398
  c1406
  c1407
  c1408
  c1409
  c141
  c1410
  c1411
  c1412
  c1413
  c1414
  c1415
  c1416
  c1417
  c1418
  c1419
  c1421
  c1422
  c1423
  c1424
  c1425
  c1426
  c143
  c1430
  c1433
  c1434
  c1438
  c1442
  c1446
  c1450
  c1454
  c1458
  c1462
  c1466
  c1468
  c1469
  c1471
  c1480
  c1481
  c1484
  c1488
  c1489
  c149
  c1490
  c1494
  c1497
  c1499
  c15
  c150
  c1500
  c1502
  c1503
  c1508
  c151
  c1512
  c1514
  c1515
  c1519
  c1520
  c1521
  c1527
  c1529
  c153
  c1532
  c1535
  c1536
  c1537
  c1538
  c1539
  c154
  c1540
  c1541
  c1542
  c1543
  c1544
  c1545
  c1546
  c1547
  c1548
  c1549
  c1550
  c1558
  c1559
  c156
  c1561
  c1567
  c1569
  c157
  c1571
  c1574
  c1577
  c1579
  c1580
  c1584
  c1587
  c1589
  c159
  c1590
  c1592
  c1593
  c1596
  c1598
  c160
  c1601
  c1602
  c1609
  c1611
  c1614
  c1617
  c1618
  c1619
  c162
  c1620
  c1621
  c1622
  c1623
  c1624
  c1625
  c1626
  c1627
  c1628
  c1629
  c163
  c1630
  c1631
  c1632
  c1640
  c1641
  c1643
  c1650
  c1651
  c1653
  c1656
  c1660
  c1661
  c1662
  c1666
  c1669
  c1671
  c1672
  c1674
  c1675
  c1678
  c1679
  c1683
  c1684
  c1685
  c1691
  c1693
  c1696
  c1699
  c1700
  c1701
  c1702
  c1703
  c1704
  c1705
  c1706
  c1707
  c1708
  c1709
  c1710
  c1711
  c1712
  c1713
  c1714
  c172
  c1722
  c1723
  c1725
  c1732
  c1733
  c1735
  c1738
  c174
  c1742
  c1743
  c1744
  c1748
  c175
  c1751
  c1753
  c1754
  c1756
  c1757
  c1760
  c1764
  c1765
  c1766
  c1773
  c1775
  c1778
  c1781
  c1782
  c1783
  c1784
  c1785
  c1786
  c1787
  c1788
  c1789
  c1790
  c1791
  c1792
  c1793
  c1794
  c1795
  c1796
  c1804
  c1805
  c1807
  c1816
  c1817
  c1820
  c1824
  c1825
  c1826
  c1830
  c1833
  c1835
  c1836
  c1838
  c1839
  c1842
  c1846
  c1847
  c1848
  c185
  c1855
  c1857
  c1860
  c1863
  c1864
  c1865
  c1866
  c1867
  c1868
  c1869
  c1870
  c1871
  c1872
  c1873
  c1874
  c1875
  c1876
  c1877
  c1878
  c188
  c1886
  c1887
  c1889
  c1896
  c1897
  c1899
  c1906
  c1907
  c1908
  c1912
  c1915
  c1917
  c1918
  c1920
  c1921
  c1924
  c1928
  c1929
  c1930
  c1937
  c1939
  c194
  c1942
  c1945
  c1946
  c1947
  c1948
  c1949
  c1950
  c1951
  c1952
  c1953
  c1954
  c1955
  c1956
  c1957
  c1958
  c1959
  c1960
  c1968
  c1969
  c1979
  c198
  c1983
  c1987
  c1990
  c1991
  c1995
  c1999
  c2003
  c2007
  c201
  c2011
  c2015
  c2019
  c2023
  c2024
  c2025
  c2026
  c2027
  c203
  c2030
  c2031
  c2032
  c2033
  c2034
  c2035
  c204
  c2040
  c2041
  c2042
  c2043
  c2044
  c2045
  c2046
  c2047
  c2052
  c2053
  c2054
  c2055
  c2056
  c2057
  c2059
  c2060
  c2061
  c2066
  c2068
  c2070
  c2072
  c2074
  c2075
  c2082
  c2084
  c2086
  c2088
  c2090
  c2091
  c2099
  c2100
  c2101
  c2102
  c2103
  c2104
  c2105
  c2106
  c2107
  c2108
  c2109
  c211
  c2110
  c2111
  c2112
  c2113
  c2114
  c2115
  c2116
  c2117
  c2118
  c2119
  c2123
  c2126
  c2127
  c2131
  c2135
  c2139
  c2143
  c2147
  c215
  c2151
  c2155
  c2159
  c2161
  c2162
  c2163
  c217
  c2171
  c2172
  c2174
  c2181
  c2182
  c2183
  c2187
  c2190
  c2192
  c2193
  c2195
  c2196
  c22
  c2201
  c2205
  c2207
  c2208
  c2212
  c2213
  c2214
  c2220
  c2222
  c2225
  c2228
  c2229
  c223
  c2230
  c2231
  c2232
  c2233
  c2234
  c2235
  c2236
  c2237
  c2238
  c2239
  c2240
  c2241
  c2242
  c2243
  c225
  c2251
  c2252
  c2254
  c2260
  c2262
  c2264
  c2267
  c2271
  c2272
  c2273
  c2277
  c2280
  c2282
  c2283
  c2285
  c2286
  c2289
  c2291
  c2294
  c2295
  c23
  c2302
  c2304
  c2307
  c231
  c2310
  c2311
  c2312
  c2313
  c2314
  c2315
  c2316
  c2317
  c2318
  c2319
  c232
  c2320
  c2321
  c2322
  c2323
  c2324
  c2325
  c233
  c2333
  c2334
  c2336
  c2345
  c2346
  c2349
  c235
  c2353
  c2354
  c2355
  c2358
  c2359
  c236
  c2362
  c2364
  c2365
  c2367
  c2368
  c2371
  c2372
  c2376
  c2377
  c2378
  c238
  c2384
  c2386
  c2389
  c239
  c2392
  c2393
  c2394
  c2395
  c2396
  c2397
  c2398
  c2399
  c24
  c2400
  c2401
  c2402
  c2403
  c2404
  c2405
  c2406
  c2407
  c241
  c2415
  c2416
  c2418
  c242
  c2425
  c2426
  c2428
  c2435
  c2436
  c2437
  c244
  c2441
  c2444
  c2446
  c2447
  c2449
  c245
  c2450
  c2453
  c2454
  c2458
  c2459
  c2460
  c2466
  c2468
  c2471
  c2474
  c2475
  c2476
  c2477
  c2478
  c2479
  c2480
  c2481
  c2482
  c2483
  c2484
  c2485
  c2486
  c2487
  c2488
  c2489
  c2497
  c2498
  c2499
  c25
  c2509
  c2510
  c2513
  c2517
  c2518
  c2519
  c2523
  c2526
  c2528
  c2529
  c2531
  c2532
  c2535
  c2536
  c254
  c2540
  c2541
  c2542
  c2548
  c255
  c2550
  c2553
  c2556
  c2557
  c2558
  c2559
  c2560
  c2561
  c2562
  c2563
  c2564
  c2565
  c2566
  c2567
  c2568
  c2569
  c257
  c2570
  c2571
  c2579
  c2583
  c2584
  c2589
  c2590
  c2591
  c2599
  c26
  c2600
  c2605
  c2608
  c2610
  c2611
  c2613
  c2614
  c2617
  c2618
  c2622
  c2623
  c2624
  c2630
  c2632
  c2635
  c2638
  c2639
  c2640
  c2641
  c2642
  c2643
  c2644
  c2645
  c2646
  c2647
  c2648
  c2649
  c2650
  c2651
  c2652
  c2653
  c2661
  c2662
  c267
  c2672
  c2676
  c2680
  c2683
  c2684
  c2688
  c2692
  c2696
  c27
  c270
  c2700
  c2704
  c2708
  c2712
  c2716
  c2759
  c276
  c2761
  c2763
  c2765
  c2768
  c2793
  c2794
  c2795
  c2796
  c2797
  c2798
  c2799
  c28
  c280
  c2800
  c2801
  c2802
  c2803
  c2804
  c2805
  c2806
  c2807
  c2808
  c2809
  c2810
  c2811
  c2812
  c2816
  c2819
  c2820
  c2824
  c2828
  c283
  c2832
  c2836
  c2840
  c2844
  c2848
  c285
  c2852
  c2854
  c2855
  c286
  c2864
  c2866
  c2867
  c2874
  c2875
  c2876
  c2879
  c2880
  c2883
  c2885
  c2886
  c2888
  c2889
  c2894
  c2898
  c29
  c2900
  c2901
  c2905
  c2906
  c2907
  c2913
  c2915
  c2916
  c2917
  c2918
  c2921
  c2922
  c2923
  c2924
  c2925
  c2926
  c2927
  c2928
  c2929
  c2930
  c2931
  c2932
  c2933
  c2934
  c2935
  c2936
  c2944
  c2945
  c2954
  c2955
  c2957
  c2965
  c2966
  c297
  c2970
  c2973
  c2975
  c2976
  c2978
  c2979
  c298
  c2982
  c2984
  c2987
  c2988
  c299
  c2995
  c2997
  c2998
  c2999
  c30
  c3000
  c3003
  c3004
  c3005
  c3006
  c3007
  c3008
  c3009
  c3010
  c3011
  c3012
  c3013
  c3014
  c3015
  c3016
  c3017
  c3018
  c3026
  c3027
  c3036
  c3037
  c3039
  c3046
  c3047
  c3048
  c305
  c3052
  c3055
  c3057
  c3058
  c3060
  c3061
  c3064
  c3065
  c3069
  c307
  c3070
  c3071
  c3077
  c3079
  c3080
  c3081
  c3082
  c3085
  c3086
  c3087
  c3088
  c3089
  c3090
  c3091
  c3092
  c3093
  c3094
  c3095
  c3096
  c3097
  c3098
  c3099
  c31
  c3100
  c3108
  c3109
  c3118
  c3120
  c3121
  c3128
  c3129
  c313
  c3130
  c3134
  c3137
  c3139
  c314
  c3140
  c3142
  c3143
  c3146
  c3147
  c315
  c3151
  c3152
  c3153
  c3158
  c3159
  c3161
  c3163
  c3164
  c3167
  c3168
  c3169
  c317
  c3170
  c3171
  c3172
  c3173
  c3174
  c3175
  c3176
  c3177
  c3178
  c3179
  c318
  c3180
  c3181
  c3182
  c3190
  c3191
  c32
  c320
  c3202
  c3203
  c3206
  c321
  c3210
  c3211
  c3212
  c3215
  c3216
  c3219
  c3221
  c3222
  c3224
  c3225
  c3228
  c3229
  c323
  c3233
  c3234
  c3235
  c324
  c3241
  c3243
  c3244
  c3245
  c3246
  c3249
  c3250
  c3251
  c3252
  c3253
  c3254
  c3255
  c3256
  c3257
  c3258
  c3259
  c326
  c3260
  c3261
  c3262
  c3263
  c3264
  c327
  c3272
  c3273
  c3282
  c3284
  c3292
  c3293
  c3298
  c33
  c3301
  c3303
  c3304
  c3306
  c3307
  c3310
  c3311
  c3315
  c3316
  c3317
  c3323
  c3325
  c3326
  c3327
  c3328
  c3331
  c3332
  c3333
  c3334
  c3335
  c3336
  c3337
  c3338
  c3339
  c3340
  c3341
  c3342
  c3343
  c3344
  c3345
  c3346
  c3354
  c3355
  c336
  c3365
  c3369
  c337
  c3373
  c3376
  c3377
  c3381
  c3385
  c3389
  c339
  c3393
  c3397
  c34
  c3401
  c3405
  c3409
  c3414
  c3417
  c3429
  c3443
  c3452
  c3454
  c3456
  c3458
  c3460
  c3461
  c3468
  c3470
  c3472
  c3474
  c3476
  c3477
  c3485
  c3486
  c3487
  c3488
  c3489
  c349
  c3490
  c3491
  c3492
  c3493
  c3494
  c3495
  c3496
  c3497
  c3498
  c3499
  c35
  c3500
  c3501
  c3502
  c3503
  c3504
  c3505
  c3509
  c3513
  c3517
  c352
  c3521
  c3525
  c3529
  c3533
  c3537
  c3541
  c3545
  c3547
  c3548
  c3557
  c3559
  c3567
  c3568
  c3576
  c3578
  c3579
  c358
  c3581
  c3582
  c3587
  c3591
  c3596
  c3598
  c3599
  c36
  c3605
  c3608
  c3609
  c3610
  c3611
  c3614
  c3615
  c3616
  c3617
  c3618
  c3619
  c362
  c3620
  c3621
  c3622
  c3623
  c3624
  c3625
  c3626
  c3627
  c3628
  c3629
  c3637
  c3638
  c3647
  c365
  c3650
  c3657
  c3658
  c3666
  c3668
  c3669
  c367
  c3672
  c3678
  c368
  c3680
  c3681
  c3687
  c3688
  c3689
  c3690
  c3691
  c3692
  c3696
  c3697
  c3698
  c3699
  c37
  c3700
  c3701
  c3702
  c3703
  c3704
  c3705
  c3706
  c3707
  c3708
  c3709
  c3710
  c3711
  c3719
  c3720
  c3729
  c3732
  c3739
  c3740
  c3748
  c3750
  c3751
  c3753
  c3754
  c3760
  c3762
  c3763
  c3769
  c3772
  c3773
  c3774
  c3775
  c3778
  c3779
  c3780
  c3781
  c3782
  c3783
  c3784
  c3785
  c3786
  c3787
  c3788
  c3789
  c379
  c3790
  c3791
  c3792
  c3793
  c38
  c380
  c3801
  c3802
  c381
  c3811
  c3813
  c3822
  c3823
  c3830
  c3832
  c3833
  c3835
  c3836
  c3842
  c3844
  c3845
  c3851
  c3854
  c3855
  c3856
  c3857
  c3860
  c3861
  c3862
  c3863
  c3864
  c3865
  c3866
  c3867
  c3868
  c3869
  c387
  c3870
  c3871
  c3872
  c3873
  c3874
  c3875
  c3883
  c3884
  c389
  c3893
  c3895
  c39
  c3903
  c3904
  c3912
  c3914
  c3915
  c3917
  c3918
  c3921
  c3926
  c3927
  c3933
  c3936
  c3937
  c3938
  c3939
  c3942
  c3943
  c3944
  c3945
  c3946
  c3947
  c3948
  c3949
  c395
  c3950
  c3951
  c3952
  c3953
  c3954
  c3955
  c3956
  c3957
  c396
  c3965
  c3966
  c397
  c3975
  c3977
  c3985
  c3986
  c399
  c3994
  c3996
  c3997
  c3999
  c4
  c40
  c400
  c4000
  c4006
  c4008
  c4009
  c4010
  c4015
  c4018
  c4019
  c402
  c4020
  c4021
  c4024
  c4025
  c4026
  c4027
  c4028
  c4029
  c403
  c4030
  c4031
  c4032
  c4033
  c4034
  c4035
  c4036
  c4037
  c4038
  c4039
  c4047
  c4048
  c405
  c4058
  c406
  c4062
  c4066
  c4070
  c4074
  c4078
  c408
  c4082
  c4086
  c409
  c4090
  c4094
  c4098
  c4102
  c4145
  c4147
  c4149
  c4151
  c4153
  c4154
  c4161
  c4163
  c4165
  c4167
  c4169
  c4170
  c4178
  c4179
  c418
  c4180
  c4181
  c4182
  c4183
  c4184
  c4185
  c4186
  c4187
  c4188
  c4189
  c419
  c4190
  c4191
  c4192
  c4193
  c4194
  c4195
  c4196
  c4197
  c4198
  c4202
  c4206
  c421
  c4210
  c4214
  c4218
  c4222
  c4226
  c4230
  c4234
  c4238
  c4241
  c4250
  c4260
  c4269
  c4271
  c4272
  c4274
  c4275
  c4280
  c4284
  c4289
  c4298
  c4301
  c4303
  c4304
  c4307
  c4308
  c4309
  c431
  c4310
  c4311
  c4312
  c4313
  c4314
  c4315
  c4316
  c4317
  c4318
  c4319
  c4320
  c4321
  c4322
  c4331
  c434
  c4340
  c4350
  c4359
  c4361
  c4362
  c4364
  c4365
  c4371
  c438
  c4383
  c4385
  c4386
  c4389
  c439
  c4390
  c4391
  c4392
  c4393
  c4394
  c4395
  c4396
  c4397
  c4398
  c4399
  c44
  c440
  c4400
  c4401
  c4402
  c4403
  c4404
  c4413
  c4422
  c4434
  c444
  c4441
  c4443
  c4444
  c4446
  c4447
  c4453
  c4465
  c4466
  c4467
  c4468
  c447
  c4471
  c4472
  c4473
  c4474
  c4475
  c4476
  c4477
  c4478
  c4479
  c4480
  c4481
  c4482
  c4483
  c4484
  c4485
  c4486
  c449
  c4495
  c450
  c4504
  c4514
  c4523
  c4525
  c4526
  c4528
  c4529
  c4535
  c4547
  c4549
  c4550
  c4553
  c4554
  c4555
  c4556
  c4557
  c4558
  c4559
  c456
  c4560
  c4561
  c4562
  c4563
  c4564
  c4565
  c4566
  c4567
  c4568
  c4577
  c4586
  c4598
  c4605
  c4607
  c4608
  c461
  c4610
  c4611
  c4617
  c462
  c4629
  c4631
  c4632
  c4635
  c4636
  c4637
  c4638
  c4639
  c4640
  c4641
  c4642
  c4643
  c4644
  c4645
  c4646
  c4647
  c4648
  c4649
  c4650
  c4659
  c4668
  c4678
  c4687
  c4689
  c469
  c4690
  c4692
  c4693
  c4699
  c471
  c4711
  c4713
  c4714
  c4717
  c4718
  c4719
  c4720
  c4721
  c4722
  c4723
  c4724
  c4725
  c4726
  c4727
  c4728
  c4729
  c4730
  c4731
  c4732
  c4740
  c4741
  c4751
  c4755
  c4759
  c4763
  c4767
  c477
  c4771
  c4775
  c4779
  c478
  c4783
  c4787
  c479
  c4791
  c4795
  c4796
  c4797
  c48
  c481
  c4810
  c482
  c4822
  c4834
  c4838
  c484
  c4840
  c4842
  c4844
  c485
  c4854
  c4856
  c4858
  c4860
  c4862
  c4863
  c487
  c4871
  c4872
  c4873
  c4874
  c4875
  c4876
  c4877
  c4878
  c4879
  c488
  c4880
  c4881
  c4882
  c4883
  c4884
  c4885
  c4886
  c4887
  c4888
  c4889
  c4890
  c4891
  c4895
  c4899
  c490
  c4903
  c4907
  c491
  c4911
  c4915
  c4919
  c4923
  c4927
  c4931
  c4934
  c4943
  c4953
  c4962
  c4964
  c4973
  c4977
  c4982
  c4994
  c4995
  c4996
  c4997
  c500
  c5000
  c5001
  c5002
  c5003
  c5004
  c5005
  c5006
  c5007
  c5008
  c5009
  c501
  c5010
  c5011
  c5012
  c5013
  c5014
  c5015
  c5024
  c503
  c5033
  c5043
  c5052
  c5054
  c5064
  c5076
  c5077
  c5078
  c5079
  c5082
  c5083
  c5084
  c5085
  c5086
  c5087
  c5088
  c5089
  c5090
  c5091
  c5092
  c5093
  c5094
  c5095
  c5096
  c5097
  c5106
  c5115
  c5125
  c513
  c5134
  c5136
  c5146
  c5158
  c5159
  c516
  c5160
  c5161
  c5164
  c5165
  c5166
  c5167
  c5168
  c5169
  c5170
  c5171
  c5172
  c5173
  c5174
  c5175
  c5176
  c5177
  c5178
  c5179
  c5188
  c5197
  c52
  c5207
  c5216
  c5218
  c522
  c5228
  c5240
  c5241
  c5242
  c5243
  c5246
  c5247
  c5248
  c5249
  c5250
  c5251
  c5252
  c5253
  c5254
  c5255
  c5256
  c5257
  c5258
  c5259
  c526
  c5260
  c5261
  c5270
  c5279
  c5289
  c529
  c5298
  c5300
  c531
  c5310
  c532
  c5322
  c5323
  c5324
  c5325
  c5328
  c5329
  c5330
  c5331
  c5332
  c5333
  c5334
  c5335
  c5336
  c5337
  c5338
  c5339
  c5340
  c5341
  c5342
  c5343
  c5352
  c5361
  c5371
  c538
  c5380
  c5382
  c5392
  c5404
  c5405
  c5406
  c5407
  c5410
  c5411
  c5412
  c5413
  c5414
  c5415
  c5416
  c5417
  c5418
  c5419
  c5420
  c5421
  c5422
  c5423
  c5424
  c5425
  c543
  c5433
  c5434
  c544
  c5444
  c5448
  c5452
  c5456
  c5460
  c5464
  c5468
  c5472
  c5476
  c5480
  c5484
  c5488
  c551
  c553
  c5531
  c5533
  c5535
  c5537
  c5539
  c5540
  c5547
  c5549
  c5551
  c5553
  c5555
  c5556
  c5564
  c5565
  c5566
  c5567
  c5568
  c5569
  c5570
  c5571
  c5572
  c5573
  c5574
  c5575
  c5576
  c5577
  c5578
  c5579
  c5580
  c5581
  c5582
  c5583
  c5584
  c5588
  c559
  c5592
  c5596
  c56
  c560
  c5600
  c5604
  c5608
  c561
  c5612
  c5616
  c5620
  c5624
  c5626
  c563
  c5636
  c564
  c5646
  c5655
  c566
  c5666
  c567
  c5670
  c5675
  c5687
  c5688
  c5689
  c569
  c5690
  c5693
  c5694
  c5695
  c5697
  c5698
  c570
  c5700
  c5701
  c5703
  c5704
  c5706
  c5707
  c5716
  c572
  c5726
  c573
  c5736
  c5745
  c5757
  c5769
  c5770
  c5771
  c5772
  c5775
  c5776
  c5777
  c5779
  c5780
  c5782
  c5783
  c5785
  c5786
  c5788
  c5789
  c5798
  c5808
  c5818
  c582
  c5827
  c5839
  c5851
  c5852
  c5853
  c5854
  c5857
  c5858
  c5859
  c5861
  c5862
  c5864
  c5865
  c5867
  c5868
  c5870
  c5871
  c5880
  c5890
  c5900
  c5909
  c5921
  c593
  c5933
  c5934
  c5935
  c5936
  c5939
  c5940
  c5941
  c5943
  c5944
  c5946
  c5947
  c5949
  c5950
  c5952
  c5953
  c5962
  c597
  c5972
  c5982
  c5991
  c6
  c60
  c6003
  c601
  c6015
  c6016
  c6017
  c6018
  c6021
  c6022
  c6023
  c6025
  c6026
  c6028
  c6029
  c6031
  c6032
  c6034
  c6035
  c6044
  c605
  c6054
  c6064
  c6073
  c6085
  c609
  c6097
  c6098
  c6099
  c6100
  c6103
  c6104
  c6105
  c6107
  c6108
  c6110
  c6111
  c6113
  c6114
  c6116
  c6117
  c6126
  c6127
  c613
  c6137
  c6141
  c6145
  c6149
  c6153
  c6157
  c6161
  c6165
  c6169
  c617
  c6173
  c6177
  c6181
  c621
  c625
  c6259
  c6260
  c6261
  c6262
  c6263
  c6264
  c6265
  c6266
  c6267
  c6268
  c6269
  c6270
  c6277
  c629
  c6320
  c633
  c6330
  c6340
  c6350
  c6368
  c637
  c6377
  c6386
  c64
  c6410
  c6419
  c6429
  c6438
  c6450
  c6459
  c6468
  c6492
  c6502
  c6512
  c6522
  c6532
  c6541
  c6550
  c6574
  c6584
  c6594
  c6604
  c6614
  c6623
  c6632
  c6656
  c6665
  c6675
  c6684
  c6696
  c6705
  c6714
  c6738
  c6748
  c6758
  c6768
  c6778
  c6787
  c6796
  c68
  c6819
  c6820
  c6830
  c6834
  c6838
  c6842
  c6846
  c6850
  c6854
  c6858
  c6862
  c6866
  c6870
  c6874
  c6952
  c6953
  c6954
  c6955
  c6956
  c6957
  c6958
  c6959
  c6960
  c6961
  c6962
  c6963
  c6970
  c6972
  c6976
  c6980
  c6984
  c6988
  c6992
  c6995
  c6999
  c7003
  c7007
  c7011
  c7015
  c7020
  c7024
  c7028
  c7032
  c7036
  c7040
  c7044
  c7048
  c7052
  c7056
  c7060
  c7064
  c7067
  c7068
  c7071
  c7072
  c7075
  c7076
  c7079
  c7080
  c7083
  c7084
  c7087
  c7088
  c7091
  c7092
  c7095
  c7096
  c7099
  c7100
  c7103
  c7104
  c7107
  c7108
  c7111
  c7112
  c7115
  c7116
  c7117
  c7119
  c7120
  c7121
  c7123
  c7124
  c7125
  c7127
  c7128
  c7129
  c7131
  c7132
  c7133
  c7135
  c7136
  c7137
  c7139
  c7140
  c7141
  c7143
  c7144
  c7145
  c7147
  c7148
  c7149
  c715
  c7151
  c7152
  c7153
  c7155
  c7156
  c7157
  c7159
  c716
  c7160
  c7161
  c7163
  c7164
  c7165
  c7167
  c7168
  c7169
  c717
  c7171
  c7172
  c7173
  c7175
  c7176
  c7177
  c7179
  c718
  c7180
  c7181
  c7183
  c7184
  c7185
  c7187
  c7188
  c7189
  c719
  c7191
  c7192
  c7193
  c7195
  c7196
  c7197
  c7199
  c72
  c720
  c7200
  c7201
  c7203
  c7204
  c7205
  c7207
  c7208
  c7209
  c721
  c7211
  c7212
  c7213
  c7215
  c7216
  c7217
  c7219
  c722
  c7220
  c7221
  c7223
  c7224
  c7225
  c7226
  c7227
  c7228
  c7229
  c723
  c7230
  c7232
  c7233
  c7234
  c7235
  c7236
  c7237
  c7238
  c7239
  c724
  c7241
  c7242
  c7244
  c7245
  c725
  c726
  c733
  c737
  c741
  c745
  c749
  c753
  c757
  c76
  c761
  c765
  c769
  c773
  c775
  c776
  c778
  c780
  c788
  c791
  c795
  c796
  c797
  c8
  c80
  c801
  c804
  c806
  c807
  c809
  c815
  c819
  c82
  c821
  c826
  c827
  c83
  c834
  c836
  c839
  c842
  c843
  c844
  c845
  c846
  c847
  c848
  c849
  c85
  c850
  c851
  c852
  c853
  c854
  c855
  c856
  c857
  c865
  c866
  c868
  c870
  c878
  c881
  c884
  c886
  c887
  c891
  c894
  c896
  c897
  c899
  c903
  c908
  c909
  c916
  c918
  c921
  c924
  c925
  c926
  c927
  c928
  c929
  c930
  c931
  c932
  c933
  c934
  c935
  c936
  c937
  c938
  c939
  c947
  c948
  c950
  c952
  c96
  c960
  c963
  c967
  c968
  c969
  c973
  c976
  c978
  c979
  c98
  c981
  c985
  c990
  c991
  c998 )
